MITM/AES/Solution/AES192_r1_r4_r3.sol
# Objective value = 22
SK_0_r0 0
SK_1_r0 0
SK_2_r0 1
SK_3_r0 0
SK_4_r0 0
SK_5_r0 0
SK_6_r0 0
SK_7_r0 1
SK_8_r0 1
SK_9_r0 0
SK_10_r0 0
SK_11_r0 0
SK_12_r0 0
SK_13_r0 1
SK_14_r0 0
SK_15_r0 0
SK_0_r1 0
SK_1_r1 0
SK_2_r1 0
SK_3_r1 0
SK_4_r1 0
SK_5_r1 0
SK_6_r1 0
SK_7_r1 0
SK_8_r1 0
SK_9_r1 0
SK_10_r1 1
SK_11_r1 0
SK_12_r1 0
SK_13_r1 0
SK_14_r1 0
SK_15_r1 0
SK_0_r6 0
SK_1_r6 0
SK_2_r6 0
SK_3_r6 1
SK_4_r6 0
SK_5_r6 0
SK_6_r6 0
SK_7_r6 1
SK_8_r6 0
SK_9_r6 0
SK_10_r6 0
SK_11_r6 1
SK_12_r6 0
SK_13_r6 0
SK_14_r6 0
SK_15_r6 1
SK_0_r7 1
SK_1_r7 1
SK_2_r7 0
SK_3_r7 1
SK_4_r7 1
SK_5_r7 1
SK_6_r7 1
SK_7_r7 0
SK_8_r7 1
SK_9_r7 1
SK_10_r7 0
SK_11_r7 0
SK_12_r7 1
SK_13_r7 1
SK_14_r7 0
SK_15_r7 0
SK_0_r8 1
SK_1_r8 1
SK_2_r8 1
SK_3_r8 1
SK_4_r8 1
SK_5_r8 1
SK_6_r8 1
SK_7_r8 1
SK_8_r8 1
SK_9_r8 1
SK_10_r8 1
SK_11_r8 1
SK_12_r8 1
SK_13_r8 1
SK_14_r8 1
SK_15_r8 1
CSK_0_r0 0
CSK_1_r0 0
CSK_2_r0 0
CSK_3_r0 0
CSK_4_r0 0
CSK_5_r0 0
CSK_6_r0 0
CSK_7_r0 0
CSK_8_r0 0
CSK_9_r0 0
CSK_10_r0 0
CSK_11_r0 0
CSK_12_r0 0
CSK_13_r0 0
CSK_14_r0 0
CSK_15_r0 0
CSK_0_r1 0
CSK_1_r1 0
CSK_2_r1 0
CSK_3_r1 0
CSK_4_r1 0
CSK_5_r1 0
CSK_6_r1 0
CSK_7_r1 0
CSK_8_r1 0
CSK_9_r1 0
CSK_10_r1 0
CSK_11_r1 0
CSK_12_r1 0
CSK_13_r1 0
CSK_14_r1 0
CSK_15_r1 0
CSK_0_r6 0
CSK_1_r6 0
CSK_2_r6 0
CSK_3_r6 0
CSK_4_r6 0
CSK_5_r6 0
CSK_6_r6 0
CSK_7_r6 0
CSK_8_r6 0
CSK_9_r6 0
CSK_10_r6 0
CSK_11_r6 0
CSK_12_r6 0
CSK_13_r6 0
CSK_14_r6 0
CSK_15_r6 0
CSK_0_r7 0
CSK_1_r7 0
CSK_2_r7 0
CSK_3_r7 0
CSK_4_r7 0
CSK_5_r7 0
CSK_6_r7 0
CSK_7_r7 0
CSK_8_r7 0
CSK_9_r7 0
CSK_10_r7 0
CSK_11_r7 0
CSK_12_r7 0
CSK_13_r7 0
CSK_14_r7 0
CSK_15_r7 0
CSK_0_r8 0
CSK_1_r8 1
CSK_2_r8 1
CSK_3_r8 1
CSK_4_r8 0
CSK_5_r8 1
CSK_6_r8 1
CSK_7_r8 1
CSK_8_r8 0
CSK_9_r8 1
CSK_10_r8 1
CSK_11_r8 1
CSK_12_r8 0
CSK_13_r8 1
CSK_14_r8 1
CSK_15_r8 1
Ad0 1
S_0_r_minus1_TypeX 0
S_1_r_minus1_TypeX 0
S_2_r_minus1_TypeX 1
S_3_r_minus1_TypeX 0
S_4_r_minus1_TypeX 0
S_5_r_minus1_TypeX 0
S_6_r_minus1_TypeX 0
S_7_r_minus1_TypeX 1
S_8_r_minus1_TypeX 1
S_9_r_minus1_TypeX 0
S_10_r_minus1_TypeX 0
S_11_r_minus1_TypeX 0
S_12_r_minus1_TypeX 0
S_13_r_minus1_TypeX 1
S_14_r_minus1_TypeX 0
S_15_r_minus1_TypeX 0
S_0_r4_TypeX 1
S_0_r4_TypeZ 0
S_0_r4_TypeY 0
S_1_r4_TypeX 1
S_1_r4_TypeZ 0
S_1_r4_TypeY 0
S_2_r4_TypeX 1
S_2_r4_TypeZ 0
S_2_r4_TypeY 0
S_3_r4_TypeX 1
S_3_r4_TypeZ 1
S_3_r4_TypeY 1
S_4_r4_TypeX 1
S_4_r4_TypeZ 0
S_4_r4_TypeY 0
S_5_r4_TypeX 1
S_5_r4_TypeZ 0
S_5_r4_TypeY 0
S_6_r4_TypeX 1
S_6_r4_TypeZ 0
S_6_r4_TypeY 0
S_7_r4_TypeX 1
S_7_r4_TypeZ 0
S_7_r4_TypeY 0
S_8_r4_TypeX 1
S_8_r4_TypeZ 0
S_8_r4_TypeY 0
S_9_r4_TypeX 1
S_9_r4_TypeZ 0
S_9_r4_TypeY 0
S_10_r4_TypeX 1
S_10_r4_TypeZ 0
S_10_r4_TypeY 0
S_11_r4_TypeX 1
S_11_r4_TypeZ 0
S_11_r4_TypeY 0
S_12_r4_TypeX 1
S_12_r4_TypeZ 0
S_12_r4_TypeY 0
S_13_r4_TypeX 1
S_13_r4_TypeZ 0
S_13_r4_TypeY 0
S_14_r4_TypeX 1
S_14_r4_TypeZ 0
S_14_r4_TypeY 0
S_15_r4_TypeX 1
S_15_r4_TypeZ 0
S_15_r4_TypeY 0
S_0_r0_TypeX 0
S_1_r0_TypeX 0
S_2_r0_TypeX 0
S_3_r0_TypeX 0
S_4_r0_TypeX 0
S_5_r0_TypeX 0
S_6_r0_TypeX 0
S_7_r0_TypeX 0
S_8_r0_TypeX 0
S_9_r0_TypeX 0
S_10_r0_TypeX 1
S_11_r0_TypeX 0
S_12_r0_TypeX 0
S_13_r0_TypeX 0
S_14_r0_TypeX 0
S_15_r0_TypeX 0
S_0_r1_TypeZ 1
S_1_r1_TypeZ 0
S_2_r1_TypeZ 0
S_3_r1_TypeZ 0
S_4_r1_TypeZ 1
S_5_r1_TypeZ 0
S_6_r1_TypeZ 0
S_7_r1_TypeZ 0
S_8_r1_TypeZ 1
S_9_r1_TypeZ 0
S_10_r1_TypeZ 0
S_11_r1_TypeZ 0
S_12_r1_TypeZ 1
S_13_r1_TypeZ 0
S_14_r1_TypeZ 0
S_15_r1_TypeZ 0
S_0_r2_TypeZ 1
S_1_r2_TypeZ 1
S_2_r2_TypeZ 1
S_3_r2_TypeZ 1
S_4_r2_TypeZ 1
S_5_r2_TypeZ 1
S_6_r2_TypeZ 1
S_7_r2_TypeZ 1
S_8_r2_TypeZ 1
S_9_r2_TypeZ 1
S_10_r2_TypeZ 1
S_11_r2_TypeZ 1
S_12_r2_TypeZ 1
S_13_r2_TypeZ 1
S_14_r2_TypeZ 1
S_15_r2_TypeZ 1
S_0_r3_TypeZ 0
S_1_r3_TypeZ 0
S_2_r3_TypeZ 0
S_3_r3_TypeZ 1
S_4_r3_TypeZ 1
S_5_r3_TypeZ 0
S_6_r3_TypeZ 0
S_7_r3_TypeZ 0
S_8_r3_TypeZ 0
S_9_r3_TypeZ 1
S_10_r3_TypeZ 0
S_11_r3_TypeZ 0
S_12_r3_TypeZ 0
S_13_r3_TypeZ 0
S_14_r3_TypeZ 1
S_15_r3_TypeZ 0
V_0_r0_TypeX 0
V_1_r0_TypeX 0
V_2_r0_TypeX 0
V_3_r0_TypeX 0
V_4_r0_TypeX 0
V_5_r0_TypeX 0
V_6_r0_TypeX 0
V_7_r0_TypeX 0
V_8_r0_TypeX 1
V_9_r0_TypeX 0
V_10_r0_TypeX 0
V_11_r0_TypeX 0
V_12_r0_TypeX 0
V_13_r0_TypeX 0
V_14_r0_TypeX 0
V_15_r0_TypeX 0
Add_0_r0_TypeX 1
S_0_r1_TypeX 1
S_4_r1_TypeX 1
S_8_r1_TypeX 1
S_12_r1_TypeX 1
Add_1_r0_TypeX 0
S_1_r1_TypeX 0
S_5_r1_TypeX 0
S_9_r1_TypeX 0
S_13_r1_TypeX 0
Add_2_r0_TypeX 0
S_2_r1_TypeX 0
S_6_r1_TypeX 0
S_10_r1_TypeX 0
S_14_r1_TypeX 0
Add_3_r0_TypeX 0
S_3_r1_TypeX 0
S_7_r1_TypeX 0
S_11_r1_TypeX 0
S_15_r1_TypeX 0
S_0_r0_TypeY 1
V_0_r0_TypeY 1
S_1_r0_TypeY 1
V_1_r0_TypeY 1
S_2_r0_TypeY 1
V_2_r0_TypeY 1
S_3_r0_TypeY 1
V_3_r0_TypeY 1
S_5_r0_TypeY 1
V_4_r0_TypeY 1
S_6_r0_TypeY 1
V_5_r0_TypeY 1
S_7_r0_TypeY 1
V_6_r0_TypeY 1
S_4_r0_TypeY 1
V_7_r0_TypeY 1
S_10_r0_TypeY 1
V_8_r0_TypeY 1
S_11_r0_TypeY 1
V_9_r0_TypeY 1
S_8_r0_TypeY 1
V_10_r0_TypeY 1
S_9_r0_TypeY 1
V_11_r0_TypeY 1
S_15_r0_TypeY 1
V_12_r0_TypeY 1
S_12_r0_TypeY 1
V_13_r0_TypeY 1
S_13_r0_TypeY 1
V_14_r0_TypeY 1
S_14_r0_TypeY 1
V_15_r0_TypeY 1
S_0_r1_TypeY 1
S_4_r1_TypeY 1
S_8_r1_TypeY 1
S_12_r1_TypeY 1
S_1_r1_TypeY 1
S_5_r1_TypeY 1
S_9_r1_TypeY 1
S_13_r1_TypeY 1
S_2_r1_TypeY 1
S_6_r1_TypeY 1
S_10_r1_TypeY 1
S_14_r1_TypeY 1
S_3_r1_TypeY 1
S_7_r1_TypeY 1
S_11_r1_TypeY 1
S_15_r1_TypeY 1
S_0_r0_TypeZ 0
S_1_r0_TypeZ 0
S_2_r0_TypeZ 0
S_3_r0_TypeZ 0
S_4_r0_TypeZ 0
S_5_r0_TypeZ 0
S_6_r0_TypeZ 0
S_7_r0_TypeZ 0
S_8_r0_TypeZ 0
S_9_r0_TypeZ 0
S_10_r0_TypeZ 1
S_11_r0_TypeZ 0
S_12_r0_TypeZ 0
S_13_r0_TypeZ 0
S_14_r0_TypeZ 0
S_15_r0_TypeZ 0
V_0_r0_TypeZ 0
V_1_r0_TypeZ 0
V_2_r0_TypeZ 0
V_3_r0_TypeZ 0
V_4_r0_TypeZ 0
V_5_r0_TypeZ 0
V_6_r0_TypeZ 0
V_7_r0_TypeZ 0
V_8_r0_TypeZ 1
V_9_r0_TypeZ 0
V_10_r0_TypeZ 0
V_11_r0_TypeZ 0
V_12_r0_TypeZ 0
V_13_r0_TypeZ 0
V_14_r0_TypeZ 0
V_15_r0_TypeZ 0
V_0_r1_TypeX 1
V_1_r1_TypeX 0
V_2_r1_TypeX 0
V_3_r1_TypeX 0
V_4_r1_TypeX 0
V_5_r1_TypeX 0
V_6_r1_TypeX 0
V_7_r1_TypeX 1
V_8_r1_TypeX 0
V_9_r1_TypeX 0
V_10_r1_TypeX 1
V_11_r1_TypeX 0
V_12_r1_TypeX 0
V_13_r1_TypeX 1
V_14_r1_TypeX 0
V_15_r1_TypeX 0
S_0_r2_TypeX 1
S_4_r2_TypeX 1
S_8_r2_TypeX 1
S_12_r2_TypeX 1
S_1_r2_TypeX 1
S_5_r2_TypeX 1
S_9_r2_TypeX 1
S_13_r2_TypeX 1
S_2_r2_TypeX 1
S_6_r2_TypeX 1
S_10_r2_TypeX 1
S_14_r2_TypeX 1
S_3_r2_TypeX 1
S_7_r2_TypeX 1
S_11_r2_TypeX 1
S_15_r2_TypeX 1
V_0_r1_TypeY 1
V_1_r1_TypeY 1
V_2_r1_TypeY 1
V_3_r1_TypeY 1
V_4_r1_TypeY 1
V_5_r1_TypeY 1
V_6_r1_TypeY 1
V_7_r1_TypeY 1
V_8_r1_TypeY 1
V_9_r1_TypeY 1
V_10_r1_TypeY 1
V_11_r1_TypeY 1
V_12_r1_TypeY 1
V_13_r1_TypeY 1
V_14_r1_TypeY 1
V_15_r1_TypeY 1
S_0_r2_TypeY 1
S_4_r2_TypeY 1
S_8_r2_TypeY 1
S_12_r2_TypeY 1
S_1_r2_TypeY 1
S_5_r2_TypeY 1
S_9_r2_TypeY 1
S_13_r2_TypeY 1
S_2_r2_TypeY 1
S_6_r2_TypeY 1
S_10_r2_TypeY 1
S_14_r2_TypeY 1
S_3_r2_TypeY 1
S_7_r2_TypeY 1
S_11_r2_TypeY 1
S_15_r2_TypeY 1
V_0_r1_TypeZ 1
V_1_r1_TypeZ 0
V_2_r1_TypeZ 0
V_3_r1_TypeZ 0
V_4_r1_TypeZ 0
V_5_r1_TypeZ 0
V_6_r1_TypeZ 0
V_7_r1_TypeZ 1
V_8_r1_TypeZ 0
V_9_r1_TypeZ 0
V_10_r1_TypeZ 1
V_11_r1_TypeZ 0
V_12_r1_TypeZ 0
V_13_r1_TypeZ 1
V_14_r1_TypeZ 0
V_15_r1_TypeZ 0
V_0_r2_TypeX 1
V_1_r2_TypeX 1
V_2_r2_TypeX 1
V_3_r2_TypeX 1
V_4_r2_TypeX 1
V_5_r2_TypeX 1
V_6_r2_TypeX 1
V_7_r2_TypeX 1
V_8_r2_TypeX 1
V_9_r2_TypeX 1
V_10_r2_TypeX 1
V_11_r2_TypeX 1
V_12_r2_TypeX 1
V_13_r2_TypeX 1
V_14_r2_TypeX 1
V_15_r2_TypeX 1
S_0_r3_TypeX 1
S_4_r3_TypeX 1
S_8_r3_TypeX 1
S_12_r3_TypeX 1
S_1_r3_TypeX 1
S_5_r3_TypeX 1
S_9_r3_TypeX 1
S_13_r3_TypeX 1
S_2_r3_TypeX 1
S_6_r3_TypeX 1
S_10_r3_TypeX 1
S_14_r3_TypeX 1
S_3_r3_TypeX 1
S_7_r3_TypeX 1
S_11_r3_TypeX 1
S_15_r3_TypeX 1
V_0_r2_TypeY 1
V_1_r2_TypeY 1
V_2_r2_TypeY 1
V_3_r2_TypeY 1
V_4_r2_TypeY 1
V_5_r2_TypeY 1
V_6_r2_TypeY 1
V_7_r2_TypeY 1
V_8_r2_TypeY 1
V_9_r2_TypeY 1
V_10_r2_TypeY 1
V_11_r2_TypeY 1
V_12_r2_TypeY 1
V_13_r2_TypeY 1
V_14_r2_TypeY 1
V_15_r2_TypeY 1
S_0_r3_TypeY 0
S_4_r3_TypeY 1
S_8_r3_TypeY 0
S_12_r3_TypeY 0
S_1_r3_TypeY 0
S_5_r3_TypeY 0
S_9_r3_TypeY 1
S_13_r3_TypeY 0
S_2_r3_TypeY 0
S_6_r3_TypeY 0
S_10_r3_TypeY 0
S_14_r3_TypeY 1
S_3_r3_TypeY 1
S_7_r3_TypeY 0
S_11_r3_TypeY 0
S_15_r3_TypeY 0
V_0_r2_TypeZ 1
V_1_r2_TypeZ 1
V_2_r2_TypeZ 1
V_3_r2_TypeZ 1
V_4_r2_TypeZ 1
V_5_r2_TypeZ 1
V_6_r2_TypeZ 1
V_7_r2_TypeZ 1
V_8_r2_TypeZ 1
V_9_r2_TypeZ 1
V_10_r2_TypeZ 1
V_11_r2_TypeZ 1
V_12_r2_TypeZ 1
V_13_r2_TypeZ 1
V_14_r2_TypeZ 1
V_15_r2_TypeZ 1
V_0_r3_TypeX 1
V_1_r3_TypeX 1
V_2_r3_TypeX 1
V_3_r3_TypeX 1
V_4_r3_TypeX 1
V_5_r3_TypeX 1
V_6_r3_TypeX 1
V_7_r3_TypeX 1
V_8_r3_TypeX 1
V_9_r3_TypeX 1
V_10_r3_TypeX 1
V_11_r3_TypeX 1
V_12_r3_TypeX 1
V_13_r3_TypeX 1
V_14_r3_TypeX 1
V_15_r3_TypeX 1
V_0_r3_TypeY 0
V_1_r3_TypeY 0
V_2_r3_TypeY 0
V_3_r3_TypeY 1
V_4_r3_TypeY 0
V_5_r3_TypeY 0
V_6_r3_TypeY 0
V_7_r3_TypeY 1
V_8_r3_TypeY 0
V_9_r3_TypeY 0
V_10_r3_TypeY 0
V_11_r3_TypeY 1
V_12_r3_TypeY 0
V_13_r3_TypeY 0
V_14_r3_TypeY 0
V_15_r3_TypeY 1
Add_0_r3_TypeY 0
Add_1_r3_TypeY 0
Add_2_r3_TypeY 0
Add_3_r3_TypeY 1
V_0_r3_TypeZ 0
V_1_r3_TypeZ 0
V_2_r3_TypeZ 0
V_3_r3_TypeZ 1
V_4_r3_TypeZ 0
V_5_r3_TypeZ 0
V_6_r3_TypeZ 0
V_7_r3_TypeZ 1
V_8_r3_TypeZ 0
V_9_r3_TypeZ 0
V_10_r3_TypeZ 0
V_11_r3_TypeZ 1
V_12_r3_TypeZ 0
V_13_r3_TypeZ 0
V_14_r3_TypeZ 0
V_15_r3_TypeZ 1
V_0_r_minus1_TypeX 0
V_4_r_minus1_TypeX 0
V_8_r_minus1_TypeX 0
V_12_r_minus1_TypeX 0
V_1_r_minus1_TypeX 0
V_5_r_minus1_TypeX 0
V_9_r_minus1_TypeX 0
V_13_r_minus1_TypeX 0
V_2_r_minus1_TypeX 1
V_6_r_minus1_TypeX 1
V_10_r_minus1_TypeX 1
V_14_r_minus1_TypeX 1
V_3_r_minus1_TypeX 0
V_7_r_minus1_TypeX 0
V_11_r_minus1_TypeX 0
V_15_r_minus1_TypeX 0
V_0_r_minus1_TypeZ 0
V_4_r_minus1_TypeZ 0
V_8_r_minus1_TypeZ 0
V_12_r_minus1_TypeZ 0
V_1_r_minus1_TypeZ 0
V_5_r_minus1_TypeZ 0
V_9_r_minus1_TypeZ 0
V_13_r_minus1_TypeZ 0
V_2_r_minus1_TypeZ 1
V_6_r_minus1_TypeZ 1
V_10_r_minus1_TypeZ 1
V_14_r_minus1_TypeZ 1
V_3_r_minus1_TypeZ 0
V_7_r_minus1_TypeZ 0
V_11_r_minus1_TypeZ 0
V_15_r_minus1_TypeZ 0
S_0_r_minus1_TypeZ 0
S_1_r_minus1_TypeZ 0
S_2_r_minus1_TypeZ 1
S_3_r_minus1_TypeZ 0
S_4_r_minus1_TypeZ 0
S_5_r_minus1_TypeZ 0
S_6_r_minus1_TypeZ 0
S_7_r_minus1_TypeZ 1
S_8_r_minus1_TypeZ 1
S_9_r_minus1_TypeZ 0
S_10_r_minus1_TypeZ 0
S_11_r_minus1_TypeZ 0
S_12_r_minus1_TypeZ 0
S_13_r_minus1_TypeZ 1
S_14_r_minus1_TypeZ 0
S_15_r_minus1_TypeZ 0
V_0_r4_TypeY 0
V_1_r4_TypeY 0
V_2_r4_TypeY 0
V_3_r4_TypeY 1
V_4_r4_TypeY 0
V_5_r4_TypeY 0
V_6_r4_TypeY 0
V_7_r4_TypeY 0
V_8_r4_TypeY 0
V_9_r4_TypeY 0
V_10_r4_TypeY 0
V_11_r4_TypeY 0
V_12_r4_TypeY 0
V_13_r4_TypeY 0
V_14_r4_TypeY 0
V_15_r4_TypeY 0
S_0_r5_TypeY 0
S_4_r5_TypeY 0
S_8_r5_TypeY 0
S_12_r5_TypeY 0
S_1_r5_TypeY 0
S_5_r5_TypeY 0
S_9_r5_TypeY 0
S_13_r5_TypeY 0
S_2_r5_TypeY 0
S_6_r5_TypeY 0
S_10_r5_TypeY 0
S_14_r5_TypeY 0
S_3_r5_TypeY 1
S_7_r5_TypeY 1
S_11_r5_TypeY 1
S_15_r5_TypeY 1
V_0_r4_TypeZ 0
V_1_r4_TypeZ 0
V_2_r4_TypeZ 0
V_3_r4_TypeZ 1
V_4_r4_TypeZ 0
V_5_r4_TypeZ 0
V_6_r4_TypeZ 0
V_7_r4_TypeZ 0
V_8_r4_TypeZ 0
V_9_r4_TypeZ 0
V_10_r4_TypeZ 0
V_11_r4_TypeZ 0
V_12_r4_TypeZ 0
V_13_r4_TypeZ 0
V_14_r4_TypeZ 0
V_15_r4_TypeZ 0
V_0_r5_TypeY 0
V_1_r5_TypeY 0
V_2_r5_TypeY 0
V_3_r5_TypeY 1
V_4_r5_TypeY 0
V_5_r5_TypeY 0
V_6_r5_TypeY 1
V_7_r5_TypeY 0
V_8_r5_TypeY 0
V_9_r5_TypeY 1
V_10_r5_TypeY 0
V_11_r5_TypeY 0
V_12_r5_TypeY 1
V_13_r5_TypeY 0
V_14_r5_TypeY 0
V_15_r5_TypeY 0
S_0_r6_TypeY 1
S_4_r6_TypeY 1
S_8_r6_TypeY 1
S_12_r6_TypeY 1
S_1_r6_TypeY 1
S_5_r6_TypeY 1
S_9_r6_TypeY 1
S_13_r6_TypeY 1
S_2_r6_TypeY 1
S_6_r6_TypeY 1
S_10_r6_TypeY 1
S_14_r6_TypeY 1
S_3_r6_TypeY 1
S_7_r6_TypeY 1
S_11_r6_TypeY 1
S_15_r6_TypeY 1
V_0_r5_TypeZ 0
V_1_r5_TypeZ 0
V_2_r5_TypeZ 0
V_3_r5_TypeZ 1
V_4_r5_TypeZ 0
V_5_r5_TypeZ 0
V_6_r5_TypeZ 1
V_7_r5_TypeZ 0
V_8_r5_TypeZ 0
V_9_r5_TypeZ 1
V_10_r5_TypeZ 0
V_11_r5_TypeZ 0
V_12_r5_TypeZ 1
V_13_r5_TypeZ 0
V_14_r5_TypeZ 0
V_15_r5_TypeZ 0
V_0_r6_TypeY 1
V_1_r6_TypeY 1
V_2_r6_TypeY 1
V_3_r6_TypeY 1
V_4_r6_TypeY 1
V_5_r6_TypeY 1
V_6_r6_TypeY 1
V_7_r6_TypeY 1
V_8_r6_TypeY 1
V_9_r6_TypeY 1
V_10_r6_TypeY 1
V_11_r6_TypeY 1
V_12_r6_TypeY 1
V_13_r6_TypeY 1
V_14_r6_TypeY 1
V_15_r6_TypeY 1
S_0_r7_TypeY 1
S_4_r7_TypeY 1
S_8_r7_TypeY 1
S_12_r7_TypeY 1
S_1_r7_TypeY 1
S_5_r7_TypeY 1
S_9_r7_TypeY 1
S_13_r7_TypeY 1
S_2_r7_TypeY 1
S_6_r7_TypeY 1
S_10_r7_TypeY 1
S_14_r7_TypeY 1
S_3_r7_TypeY 1
S_7_r7_TypeY 1
S_11_r7_TypeY 1
S_15_r7_TypeY 1
V_0_r6_TypeZ 1
V_1_r6_TypeZ 1
V_2_r6_TypeZ 1
V_3_r6_TypeZ 1
V_4_r6_TypeZ 1
V_5_r6_TypeZ 1
V_6_r6_TypeZ 1
V_7_r6_TypeZ 1
V_8_r6_TypeZ 1
V_9_r6_TypeZ 1
V_10_r6_TypeZ 1
V_11_r6_TypeZ 1
V_12_r6_TypeZ 1
V_13_r6_TypeZ 1
V_14_r6_TypeZ 1
V_15_r6_TypeZ 1
